words_hard_train/1201.qaiger
aag 78 21 0 1 57
2
4
12
20
22
32
42
46
50
52
64
66
88
90
98
114
116
124
126
134
136
157
6 3 4
8 2 5
10 7 9
14 11 13
16 10 12
18 15 17
24 20 23
26 21 22
28 25 27
30 19 28
34 18 32
36 31 35
38 29 33
40 33 13
44 40 43
48 45 46
54 50 53
56 51 52
58 55 57
60 48 59
62 39 61
68 64 67
70 65 66
72 69 71
74 41 42
76 75 45
78 72 76
80 73 77
82 79 81
84 62 82
86 36 84
92 89 90
94 88 91
96 93 95
100 96 99
102 97 98
104 101 103
106 58 105
108 44 47
110 107 108
112 86 111
118 115 117
120 114 116
122 119 121
128 125 126
130 124 127
132 129 131
138 134 137
140 135 136
142 139 141
144 132 143
146 123 144
148 49 58
150 149 104
152 151 109
154 146 153
156 112 154
i0 2 y2[4]
i1 2 y1[4]
i2 1 x2[1]
i3 2 y2[3]
i4 2 y1[3]
i5 1 x2[0]
i6 1 x2[2]
i7 1 x2[3]
i8 2 y2[6]
i9 2 y1[6]
i10 2 y2[5]
i11 2 y1[5]
i12 2 y2[7]
i13 2 y1[7]
i14 1 x2[4]
i15 2 y2[1]
i16 2 y1[1]
i17 2 y2[2]
i18 2 y1[2]
i19 2 y2[0]
i20 2 y1[0]
o0 bool[0]
c
simplified
  !=
    subtract
      1
      << 3
        1 x2
    xor
      2 y1
      2 y2
