words_hard_train/1201.qaiger.qdimacs
p cnf 78 172
a 6 16 49 21 23 0
e 1 2 3 4 5 7 8 9 10 11 12 13 14 15 17 18 19 20 22 24 25 26 27 28 29 30 31 32 33 34 35 36 37 38 39 40 41 42 43 44 45 46 47 48 50 51 52 53 54 55 56 57 58 59 60 61 62 63 64 65 66 67 68 69 70 71 72 73 74 75 76 77 78 0
1 -2 3 0
-1 -3 0
2 -3 0
-1 2 4 0
1 -4 0
-2 -4 0
3 4 5 0
-3 -5 0
-4 -5 0
5 6 7 0
-5 -7 0
-6 -7 0
-5 -6 8 0
5 -8 0
6 -8 0
7 8 9 0
-7 -9 0
-8 -9 0
-10 11 12 0
10 -12 0
-11 -12 0
10 -11 13 0
-10 -13 0
11 -13 0
12 13 14 0
-12 -14 0
-13 -14 0
9 -14 15 0
-9 -15 0
14 -15 0
-9 -16 17 0
9 -17 0
16 -17 0
15 17 18 0
-15 -18 0
-17 -18 0
14 16 19 0
-14 -19 0
-16 -19 0
16 6 20 0
-16 -20 0
-6 -20 0
-20 21 22 0
20 -22 0
-21 -22 0
22 -23 24 0
-22 -24 0
23 -24 0
-25 26 27 0
25 -27 0
-26 -27 0
25 -26 28 0
-25 -28 0
26 -28 0
27 28 29 0
-27 -29 0
-28 -29 0
-24 29 30 0
24 -30 0
-29 -30 0
19 30 31 0
-19 -31 0
-30 -31 0
-32 33 34 0
32 -34 0
-33 -34 0
32 -33 35 0
-32 -35 0
33 -35 0
34 35 36 0
-34 -36 0
-35 -36 0
20 -21 37 0
-20 -37 0
21 -37 0
37 22 38 0
-37 -38 0
-22 -38 0
-36 -38 39 0
36 -39 0
38 -39 0
36 38 40 0
-36 -40 0
-38 -40 0
39 40 41 0
-39 -41 0
-40 -41 0
-31 -41 42 0
31 -42 0
41 -42 0
-18 -42 43 0
18 -43 0
42 -43 0
44 -45 46 0
-44 -46 0
45 -46 0
-44 45 47 0
44 -47 0
-45 -47 0
46 47 48 0
-46 -48 0
-47 -48 0
-48 49 50 0
48 -50 0
-49 -50 0
48 -49 51 0
-48 -51 0
49 -51 0
50 51 52 0
-50 -52 0
-51 -52 0
-29 52 53 0
29 -53 0
-52 -53 0
-22 23 54 0
22 -54 0
-23 -54 0
53 -54 55 0
-53 -55 0
54 -55 0
-43 55 56 0
43 -56 0
-55 -56 0
57 58 59 0
-57 -59 0
-58 -59 0
-57 -58 60 0
57 -60 0
58 -60 0
59 60 61 0
-59 -61 0
-60 -61 0
62 -63 64 0
-62 -64 0
63 -64 0
-62 63 65 0
62 -65 0
-63 -65 0
64 65 66 0
-64 -66 0
-65 -66 0
-67 68 69 0
67 -69 0
-68 -69 0
67 -68 70 0
-67 -70 0
68 -70 0
69 70 71 0
-69 -71 0
-70 -71 0
-66 71 72 0
66 -72 0
-71 -72 0
61 -72 73 0
-61 -73 0
72 -73 0
24 -29 74 0
-24 -74 0
29 -74 0
74 -52 75 0
-74 -75 0
52 -75 0
75 54 76 0
-75 -76 0
-54 -76 0
-73 76 77 0
73 -77 0
-76 -77 0
-56 -77 78 0
56 -78 0
77 -78 0
-78 0
